SDVRP instances/custom_instances/p02_29_split0.vrp
NAME:p02_29_split
BEST_KNOWN: 0
COMMENT: 0
DIMENSION: 383
CAPACITY: 140
EDGE_WEIGHT_FORMAT: FUNCTION
EDGE_WEIGHT_TYPE: EXACT_2D
NODE_COORD_SECTION
1 0.00000 0.00000
2 -9 -37
3 -9 -37
4 -9 -37
5 -9 -37
6 -9 -37
7 -9 -37
8 -9 -37
9 -18 -15
10 -18 -15
11 -18 -15
12 -32 4
13 -32 4
14 -32 4
15 -32 4
16 -32 4
17 -32 4
18 -30 47
19 -30 47
20 -30 47
21 9 33
22 9 33
23 9 33
24 9 33
25 9 33
26 -44 9
27 -44 9
28 -44 9
29 -44 9
30 -39 -24
31 -39 -24
32 -39 -24
33 -39 -24
34 -39 -24
35 8 -16
36 8 -16
37 8 -16
38 8 -16
39 8 -16
40 46 11
41 46 11
42 46 11
43 46 11
44 46 11
45 46 11
46 46 11
47 46 11
48 -43 22
49 -43 22
50 -43 22
51 37 -44
52 37 -44
53 -31 -35
54 -31 -35
55 -31 -35
56 -31 -35
57 -31 -35
58 -31 -35
59 -31 -35
60 -31 -35
61 -31 -35
62 43 -5
63 43 -5
64 43 -5
65 43 -5
66 -48 -29
67 -48 -29
68 31 -5
69 31 -5
70 31 -5
71 31 -5
72 31 -5
73 -12 -12
74 -12 -12
75 -12 -12
76 -12 -12
77 -12 -12
78 -12 -12
79 -12 -12
80 -40 -29
81 -40 -29
82 -40 -29
83 -40 -29
84 -40 -29
85 -40 -29
86 -40 -29
87 20 27
88 20 27
89 20 27
90 18 -41
91 18 -41
92 -24 -30
93 -24 -30
94 -24 -30
95 22 -14
96 22 -14
97 22 -14
98 22 -14
99 22 -14
100 22 -14
101 22 -14
102 22 -14
103 22 -14
104 -11 -38
105 -11 -38
106 -11 -38
107 -11 -38
108 -11 -38
109 -28 -47
110 -28 -47
111 -28 -47
112 8 -42
113 8 -42
114 8 -42
115 8 -42
116 48 -33
117 48 -33
118 48 -33
119 48 -33
120 -23 13
121 -23 13
122 -23 13
123 8 -38
124 8 -38
125 8 -38
126 8 -38
127 8 -38
128 8 -38
129 8 -38
130 12 -17
131 12 -17
132 12 -17
133 12 -17
134 12 -17
135 12 -17
136 12 -17
137 20 -31
138 20 -31
139 20 -31
140 20 -31
141 20 -31
142 49 -30
143 49 -30
144 49 -30
145 49 -30
146 49 -30
147 49 -30
148 1 4
149 1 4
150 1 4
151 1 4
152 1 4
153 1 4
154 1 4
155 1 4
156 -33 46
157 -33 46
158 -33 46
159 -33 46
160 -33 46
161 -33 46
162 -38 30
163 -38 30
164 -38 30
165 50 -2
166 50 -2
167 50 -2
168 50 -2
169 50 -2
170 5 18
171 5 18
172 5 18
173 5 18
174 30 -20
175 30 -20
176 3 -10
177 3 -10
178 3 -10
179 3 -10
180 3 -10
181 3 -10
182 3 -10
183 46 22
184 46 22
185 46 22
186 46 22
187 46 22
188 46 22
189 46 22
190 46 22
191 38 26
192 38 26
193 38 26
194 38 26
195 38 26
196 5 18
197 5 18
198 5 18
199 -16 -34
200 -16 -34
201 -16 -34
202 -16 -34
203 41 -40
204 41 -40
205 41 -40
206 41 -40
207 41 -40
208 41 -40
209 42 -50
210 42 -50
211 42 -50
212 -11 -22
213 -11 -22
214 -11 -22
215 -11 -22
216 -11 -22
217 -11 -22
218 -11 -22
219 -38 16
220 -38 16
221 -38 16
222 -38 16
223 -38 16
224 -38 49
225 -38 49
226 -38 49
227 -38 49
228 -38 49
229 -38 49
230 -38 49
231 -25 -35
232 -25 -35
233 -25 -35
234 -49 -10
235 -49 -10
236 36 -2
237 36 -2
238 36 -2
239 34 -37
240 34 -37
241 34 -37
242 34 -37
243 -22 -12
244 -22 -12
245 -22 -12
246 -22 -12
247 -22 -12
248 -22 -12
249 -22 -12
250 -27 32
251 -27 32
252 -27 32
253 -27 32
254 -27 32
255 -27 32
256 -44 -6
257 -44 -6
258 -44 -6
259 -44 -6
260 -44 -6
261 -44 -6
262 -27 -1
263 -27 -1
264 15 -12
265 15 -12
266 15 -12
267 15 -12
268 15 -12
269 15 -12
270 15 -12
271 -31 22
272 -31 22
273 -31 22
274 -31 22
275 -31 22
276 -31 22
277 -31 22
278 -31 22
279 -12 11
280 -12 11
281 -12 11
282 -12 11
283 -12 11
284 -12 11
285 -12 11
286 34 37
287 34 37
288 34 37
289 34 37
290 34 37
291 34 37
292 34 37
293 34 37
294 34 -39
295 34 -39
296 34 -39
297 34 -39
298 50 47
299 50 47
300 50 47
301 50 47
302 43 16
303 43 16
304 43 16
305 10 -25
306 10 -25
307 10 -25
308 10 -25
309 -41 22
310 -41 22
311 -41 22
312 -41 22
313 -41 22
314 -41 22
315 -41 22
316 -41 22
317 -41 22
318 19 -40
319 19 -40
320 19 -40
321 19 -40
322 19 -40
323 19 -40
324 -24 34
325 -24 34
326 -15 3
327 -15 3
328 -15 3
329 -15 3
330 -15 3
331 -15 3
332 23 39
333 23 39
334 23 39
335 23 39
336 23 39
337 42 -50
338 42 -50
339 42 -50
340 15 -15
341 15 -15
342 15 -15
343 15 -15
344 15 -15
345 15 -15
346 15 -15
347 6 -7
348 6 -7
349 6 -7
350 6 -7
351 6 -7
352 6 -7
353 6 -7
354 45 19
355 45 19
356 45 19
357 45 19
358 45 19
359 45 19
360 -3 -48
361 -3 -48
362 -3 -48
363 -3 -48
364 -3 -48
365 -3 -48
366 22 -35
367 22 -35
368 22 -35
369 22 -35
370 22 -35
371 -25 -10
372 -25 -10
373 -25 -10
374 -25 -10
375 3 19
376 3 19
377 3 19
378 3 19
379 3 19
380 3 19
381 3 19
382 3 19
383 3 19
DEMAND_SECTION
1 0
2 28
3 28
4 7
5 1
6 1
7 1
8 1
9 28
10 14
11 1
12 14
13 1
14 1
15 1
16 1
17 1
18 28
19 28
20 1
21 28
22 1
23 1
24 1
25 1
26 28
27 14
28 1
29 1
30 28
31 28
32 7
33 1
34 1
35 28
36 28
37 1
38 1
39 1
40 28
41 28
42 1
43 1
44 1
45 1
46 1
47 1
48 14
49 7
50 1
51 28
52 7
53 28
54 28
55 7
56 1
57 1
58 1
59 1
60 1
61 1
62 14
63 1
64 1
65 1
66 28
67 14
68 28
69 7
70 1
71 1
72 1
73 28
74 1
75 1
76 1
77 1
78 1
79 1
80 14
81 1
82 1
83 1
84 1
85 1
86 1
87 28
88 28
89 14
90 14
91 7
92 28
93 7
94 1
95 28
96 28
97 7
98 1
99 1
100 1
101 1
102 1
103 1
104 14
105 1
106 1
107 1
108 1
109 28
110 1
111 1
112 28
113 14
114 7
115 1
116 14
117 1
118 1
119 1
120 28
121 28
122 14
123 28
124 28
125 7
126 1
127 1
128 1
129 1
130 28
131 7
132 1
133 1
134 1
135 1
136 1
137 14
138 7
139 1
140 1
141 1
142 14
143 1
144 1
145 1
146 1
147 1
148 14
149 7
150 1
151 1
152 1
153 1
154 1
155 1
156 28
157 7
158 1
159 1
160 1
161 1
162 28
163 28
164 7
165 28
166 7
167 1
168 1
169 1
170 28
171 28
172 7
173 1
174 28
175 7
176 28
177 28
178 1
179 1
180 1
181 1
182 1
183 28
184 7
185 1
186 1
187 1
188 1
189 1
190 1
191 14
192 7
193 1
194 1
195 1
196 14
197 7
198 1
199 28
200 14
201 7
202 1
203 14
204 7
205 1
206 1
207 1
208 1
209 28
210 14
211 1
212 14
213 7
214 1
215 1
216 1
217 1
218 1
219 28
220 7
221 1
222 1
223 1
224 14
225 7
226 1
227 1
228 1
229 1
230 1
231 28
232 14
233 1
234 28
235 1
236 28
237 14
238 7
239 28
240 7
241 1
242 1
243 28
244 1
245 1
246 1
247 1
248 1
249 1
250 28
251 14
252 1
253 1
254 1
255 1
256 28
257 14
258 7
259 1
260 1
261 1
262 28
263 7
264 14
265 1
266 1
267 1
268 1
269 1
270 1
271 28
272 14
273 7
274 1
275 1
276 1
277 1
278 1
279 28
280 28
281 7
282 1
283 1
284 1
285 1
286 28
287 14
288 1
289 1
290 1
291 1
292 1
293 1
294 28
295 14
296 7
297 1
298 28
299 14
300 1
301 1
302 28
303 14
304 1
305 28
306 1
307 1
308 1
309 28
310 28
311 7
312 1
313 1
314 1
315 1
316 1
317 1
318 28
319 28
320 7
321 1
322 1
323 1
324 28
325 28
326 28
327 28
328 1
329 1
330 1
331 1
332 14
333 7
334 1
335 1
336 1
337 28
338 28
339 1
340 14
341 1
342 1
343 1
344 1
345 1
346 1
347 28
348 1
349 1
350 1
351 1
352 1
353 1
354 28
355 28
356 7
357 1
358 1
359 1
360 28
361 14
362 1
363 1
364 1
365 1
366 14
367 1
368 1
369 1
370 1
371 28
372 1
373 1
374 1
375 28
376 28
377 7
378 1
379 1
380 1
381 1
382 1
383 1
DEPOT_SECTION
1
-1
EOF