SDVRP instances/custom_instances/p02_29_split0.sol
382 -1 2 4 3 5 7 6 106 107 105 104 103 198 199 200 201 -16 15 13 12 14 11 27 26 25 28 47 48 49 221 220 218 219 222 -19 17 18 159 156 157 155 160 158 228 225 226 224 223 229 227 254 251 252 253 250 -31 66 65 81 84 82 80 83 79 85 55 56 58 53 60 59 57 54 52 -32 33 30 29 233 234 255 259 257 260 256 258 -38 34 36 35 37 307 306 304 305 129 131 133 132 135 130 134 -50 51 208 209 338 210 337 336 240 241 -69 70 71 67 68 61 64 62 63 164 166 165 168 167 145 143 141 144 146 142 117 116 118 115 174 102 100 -74 75 72 73 8 9 10 248 243 245 242 246 247 244 373 372 371 370 -77 76 78 93 91 92 231 232 230 110 109 108 216 211 212 215 213 214 217 -87 86 88 21 20 23 22 24 195 197 196 -119 120 121 261 262 -122 125 128 126 124 127 112 111 113 114 363 359 364 360 362 361 -123 90 89 319 320 317 321 322 318 369 365 368 367 366 -138 139 140 137 136 238 239 294 296 295 293 203 202 205 207 206 204 -149 154 150 147 151 148 152 153 -163 161 162 308 314 310 313 316 309 312 311 315 -169 171 170 172 374 375 376 381 378 377 380 379 382 -177 179 178 181 175 176 180 346 348 347 349 351 352 350 -187 183 182 185 188 186 189 184 355 354 357 356 358 353 303 302 -191 192 193 194 190 297 299 300 298 292 288 285 287 286 291 289 290 334 333 335 332 331 -236 237 235 41 43 44 40 45 39 46 42 301 -265 267 269 268 263 264 266 97 95 96 99 101 94 98 173 342 340 341 343 344 345 339 -276 272 273 275 274 277 270 271 249 323 324 -284 283 282 280 279 281 278 326 329 325 330 328 327 0 





OBJ=
2256.441
BEST_KNOWN=
0.000